
  12    4
  10   10   10   10

   0   0   0   0   0   2 2 3 
   2  10  10  10  10   3 6 5 4 
   5  10  10  10  10   1 4 
   1  10  10  10  10   3 11 8 7 
   2  10  10  10  10   3 11 8 7 
   1  10  10  10  10   3 11 8 7 
  10  10  10  10  10   1 10 
   6  10  10  10  10   1 9 
   5  10  10  10  10   1 12
   4  10  10  10  10   1 12
   2  10  10  10  10   1 12
   0   0   0   0   0   0 
